proyfinal/src/viki/013/experimentInOfficeAgust.take6.output/b1fb108d-cca8-4ac6-b08e-5970044a6620.als.dat
{'cnf.clauses': '118081',
 'cnf.totvars': '69608',
 'conflict literals': '17',
 'conflicts': '12',
 'decisions': '1445',
 'memused.mb': '15.40',
 'outcome': 'UNSAT',
 'propagations': '36250',
 'restarts': '1',
 'solver.msecs': 33,
 'task.msecs': 85}
