proyfinal/src/viki/013/experimentInOfficeAgust.take6.output/b1fb108d-cca8-4ac6-b08e-5970044a6620.als.out
Reading from standard input... Use '--help' for help.
============================[ Problem Statistics ]=============================
|                                                                             |
|  Number of variables:         69608                                         |
|  Number of clauses:          118081                                         |
|  Parse time:                   0.03 s                                       |
|                                                                             |
============================[ Search Statistics ]==============================
| Conflicts |          ORIGINAL         |          LEARNT          | Progress |
|           |    Vars  Clauses Literals |    Limit  Clauses Lit/Cl |          |
===============================================================================
===============================================================================
restarts              : 1
conflicts             : 12             (357 /sec)
decisions             : 1445           (0.00 % random) (43032 /sec)
propagations          : 36250          (1079512 /sec)
conflict literals     : 17             (10.53 % deleted)
Memory used           : 15.40 MB
CPU time              : 0.03358 s

UNSATISFIABLE
